data;

set A := 484827575 701812193 696274561 239184 811690266 654036662 395215444 180607596 5650062 957888657 737358255 355508299 357123630 83867947 664876877 791532975 590891109 727336928 35798877 909030428 923085364 36048366 321580990 823597337 597694316 809083572 491164227 679908975 727664879 7866867 668641521 510633064 908598515 754404880 913020476 585222160 39028542 583102543 479889229 255827831 849075562 879190297 455857214 610137581 748771618 87827511 551758939 539783236 544630883 242009363 776861282 936404241 503065020 516872445 571424451 26140395 639224973 85122916 386316769 34800298 569949003 720291865 700887119 724544936 659331514 178063759 142232340 216604163 500211505 279834909 967370726 719747289 319990489 682117945 198753138 935395465 629975022 205665214 423569810 220349176;
param T := 20000000000;

end;
